NAME : mEgtspf.pid20641.gtsp.154061438.tour
COMMENT : Length = 154061438
COMMENT : Found by LKH [Keld Helsgaun] Thu Mar 20 01:26:12 2025
TYPE : TOUR
DIMENSION : 90
TOUR_SECTION
1
43
44
45
46
72
73
74
71
26
23
24
25
90
87
88
89
64
65
66
63
47
48
49
50
67
68
69
70
7
22
19
20
21
75
76
77
78
3
28
29
30
27
32
33
34
31
9
10
8
6
59
60
61
62
36
37
38
35
13
14
11
12
2
84
85
86
83
55
56
57
58
4
40
41
42
39
5
81
82
79
80
53
54
51
52
18
15
16
17
-1
EOF
